40
    66    26     8    14    75    40    99     7    27    18    11    96    49    48    75    81    99    70    98    68    58    79    65    66    41    22    41    85    88     1    67    40    65    67    63    50    72    29    28    33
     5     6     5     7     7     3     7     2     4    10     4     5     1     6     9     9    10     4     2     4     1     1     2     4     5     4     6     3     9     3     1     7     9     4     9    10     9    10     5     1
   259   201   384   841   310   629   132   431   815   125   254   707   381   705   201   296   405   481   414   469   722   251   748   425   813   273   177   672   570    21   348    17   650    81   159   661   683   206   166    59
